NAME: test1706
TYPE: TSP
DIMENSION: 11
EDGE_WEIGHT_TYPE: EUC_2D
NODE_COORD_SECTION
1 48.45524189525886 71.30373862743883
2 66.39673684673821 83.03995384769881
3 97.14109676193233 73.17158108209112
4 75.60254865446606 39.1487232107176
5 53.4143392909036 92.11823718110895
6 18.28621897878502 97.76684748650949
7 49.86248294733302 42.80758440301958
8 9.789994324190198 45.92908487091596
9 28.946458650648342 9.988136172382156
10 94.04393504126392 59.434765996711505
11 14.953884746182434 2.290169507003137
EOF
